SDVRP instances/custom_instances/p01_5_split0.vrp
NAME:p01_5_split
BEST_KNOWN: 0
COMMENT: 0
DIMENSION: 201
CAPACITY: 160
EDGE_WEIGHT_FORMAT: FUNCTION
EDGE_WEIGHT_TYPE: EXACT_2D
NODE_COORD_SECTION
1 0.00000 0.00000
2 -49 -21
3 -49 -21
4 -49 -21
5 49 23
6 49 23
7 49 23
8 49 23
9 49 23
10 -43 -46
11 -43 -46
12 -43 -46
13 -43 -46
14 -12 -45
15 -12 -45
16 -12 -45
17 -12 -45
18 -12 -45
19 41 -1
20 41 -1
21 41 -1
22 -46 -6
23 -46 -6
24 -46 -6
25 -46 -6
26 -13 24
27 -13 24
28 -13 24
29 -13 24
30 -11 -2
31 -11 -2
32 -11 -2
33 -33 -2
34 -33 -2
35 -33 -2
36 11 14
37 11 14
38 11 14
39 11 14
40 11 14
41 11 14
42 43 -8
43 43 -8
44 -50 12
45 -50 12
46 -50 12
47 31 49
48 31 49
49 31 49
50 31 49
51 31 49
52 31 49
53 -9 -2
54 -9 -2
55 -9 -2
56 -9 -2
57 -12 -26
58 -12 -26
59 -12 -26
60 -12 -26
61 -12 -26
62 9 -50
63 9 -50
64 9 -50
65 9 -50
66 9 -50
67 9 -50
68 -26 -46
69 -26 -46
70 -26 -46
71 -26 -46
72 -26 -46
73 -26 -46
74 29 25
75 29 25
76 29 25
77 29 25
78 29 25
79 -20 6
80 -20 6
81 -5 -5
82 -5 -5
83 -10 -50
84 -10 -50
85 -15 43
86 -15 43
87 -15 43
88 -15 43
89 -17 19
90 -17 19
91 -17 19
92 -17 19
93 -17 19
94 -33 -33
95 -33 -33
96 -33 -33
97 -33 -33
98 -33 -33
99 -44 -33
100 -44 -33
101 -44 -33
102 -44 -33
103 -44 -33
104 -44 -33
105 -30 -45
106 -30 -45
107 -30 -45
108 -30 -45
109 -30 -45
110 -30 -45
111 23 -2
112 23 -2
113 23 -2
114 23 -2
115 23 -2
116 -19 -47
117 28 -38
118 28 -38
119 28 -38
120 -45 -46
121 -45 -46
122 -45 -46
123 -45 -46
124 -24 22
125 -24 22
126 -24 22
127 -24 22
128 -34 30
129 -34 30
130 -34 30
131 -34 30
132 -34 30
133 31 -21
134 31 -21
135 31 -21
136 23 -40
137 23 -40
138 23 -40
139 23 -40
140 6 -48
141 6 -48
142 6 -48
143 21 -46
144 21 -46
145 21 -46
146 21 -46
147 21 -46
148 47 47
149 47 47
150 47 47
151 17 8
152 17 8
153 17 8
154 17 8
155 -28 4
156 -28 4
157 -9 18
158 -9 18
159 -9 18
160 -9 18
161 23 -17
162 23 -17
163 23 -17
164 23 -17
165 -38 -36
166 -38 -36
167 -38 -36
168 -38 -36
169 -38 -36
170 -38 -36
171 -27 -16
172 -27 -16
173 -27 -16
174 -27 -16
175 -27 -16
176 19 -12
177 19 -12
178 19 -12
179 19 -12
180 34 8
181 34 8
182 34 8
183 34 8
184 33 -21
185 33 -21
186 -36 -47
187 -16 49
188 -16 49
189 -16 49
190 -16 49
191 -31 -6
192 -31 -6
193 -31 -6
194 -31 -6
195 -31 -6
196 -29 -27
197 -29 -27
198 -29 -27
199 -29 -27
200 -29 -27
201 -29 -27
DEMAND_SECTION
1 0
2 32
3 2
4 1
5 32
6 8
7 2
8 2
9 2
10 32
11 2
12 2
13 2
14 32
15 32
16 8
17 2
18 2
19 32
20 32
21 1
22 32
23 32
24 8
25 2
26 32
27 16
28 8
29 2
30 32
31 32
32 1
33 32
34 2
35 2
36 32
37 16
38 8
39 2
40 2
41 1
42 32
43 16
44 32
45 32
46 8
47 32
48 32
49 8
50 2
51 2
52 2
53 32
54 16
55 2
56 2
57 32
58 8
59 2
60 2
61 1
62 32
63 16
64 2
65 2
66 2
67 1
68 32
69 32
70 2
71 2
72 2
73 1
74 32
75 16
76 2
77 2
78 2
79 32
80 1
81 32
82 32
83 32
84 32
85 32
86 16
87 8
88 2
89 32
90 32
91 8
92 2
93 1
94 32
95 8
96 2
97 2
98 1
99 32
100 8
101 2
102 2
103 2
104 1
105 16
106 8
107 2
108 2
109 2
110 1
111 16
112 8
113 2
114 2
115 1
116 32
117 32
118 16
119 2
120 32
121 16
122 8
123 1
124 32
125 2
126 2
127 1
128 32
129 16
130 2
131 2
132 1
133 16
134 2
135 2
136 32
137 16
138 2
139 2
140 32
141 16
142 1
143 16
144 8
145 2
146 2
147 1
148 32
149 16
150 1
151 16
152 8
153 2
154 1
155 32
156 32
157 32
158 32
159 8
160 1
161 32
162 32
163 8
164 2
165 32
166 32
167 8
168 2
169 2
170 2
171 32
172 16
173 2
174 2
175 2
176 16
177 2
178 2
179 1
180 32
181 2
182 2
183 2
184 32
185 32
186 32
187 32
188 32
189 8
190 2
191 16
192 8
193 2
194 2
195 2
196 32
197 32
198 8
199 2
200 2
201 2
DEPOT_SECTION
1
-1
EOF