SDVRP instances/custom_instances/p01_5_split0.sol
200 -2 3 1 98 99 103 101 100 102 164 168 165 167 166 169 -17 15 14 13 16 83 82 -26 28 27 25 131 127 129 128 130 123 126 125 124 -36 39 37 35 38 40 -42 41 20 19 18 112 113 110 114 111 -45 44 43 23 24 22 21 191 194 193 -49 51 47 50 48 46 148 149 147 74 76 -52 55 54 53 29 31 30 80 -60 58 59 57 56 139 140 141 61 62 64 66 63 65 -73 77 75 6 5 8 4 7 182 181 179 180 153 152 150 151 -79 78 155 154 34 32 33 192 190 -81 198 197 196 195 170 172 174 171 173 -85 84 86 87 186 189 187 188 -88 91 92 90 89 156 157 159 158 -95 94 93 105 106 109 107 67 69 68 70 71 72 115 -104 108 185 12 10 11 9 120 119 122 121 96 97 199 200 -143 145 146 144 142 137 136 135 138 118 116 117 175 177 176 178 -160 161 162 163 134 133 132 183 184 0 





OBJ=
1717.551
BEST_KNOWN=
0.000